(set-info :Origin "This instance was generated by: BanditFuzz-- an RL fuzzer for SMT solvers" )
(set-info :Author "Joe Scott, Fed Mora, Vijay Ganesh" )
(set-info :Contact "Joe Scott, joseph.scott@uwaterloo.ca")
(set-logic QF_BV)
(declare-const bool_0 Bool)
(declare-const bool_1 Bool)
(declare-const bool_2 Bool)
(declare-const bool_3 Bool)
(declare-const bool_4 Bool)
(declare-const bv_0 (_ BitVec 32))
(declare-const bv_1 (_ BitVec 32))
(declare-const bv_2 (_ BitVec 32))
(declare-const bv_3 (_ BitVec 32))
(declare-const bv_4 (_ BitVec 32))
(assert (and (bvslt (bvxor #xaf285fea  bv_3) (bvsub #xcce798b4  #xf074aa04 )) (bvsge (bvsrem bv_3 bv_4) (bvsrem #xb840692e  #x0a8a382f ))))
(assert (bvslt (bvsmod (bvlshr bv_0 bv_1) (bvsrem #x8f424489  bv_4)) (bvurem (bvor bv_1 bv_0) (bvshl bv_4 bv_2))))
(assert (bvugt (bvadd (bvor bv_1 #x00ad7e53 ) (bvmul #xca35d079  bv_3)) (bvashr (bvor bv_4 #xf133ae5d ) (bvadd bv_2 bv_1))))
(assert (bvuge (bvudiv (bvudiv bv_3 bv_0) (bvshl #x7d520c83  bv_2)) (bvmul (bvand #x9ecb0e18  #x1e677512 ) (bvsub bv_2 #xe36b0345 ))))
(assert (=> (bvslt (bvsmod bv_0 bv_1) (bvsub bv_1 bv_1)) (bvuge (bvsrem bv_0 bv_4) (bvsrem bv_3 bv_4))))
(check-sat)
(exit)
